3
Coordinates from ORCA-job .\OCN_geomOpt E -168.006431283006
  O       0.000000      0.000000      0.000000
  C       1.240000      0.000000      0.000000
  N       2.480000      0.000000      0.000000
3
Coordinates from ORCA-job .\OCN_geomOpt E -168.013387969864
  O       0.042061     -0.000000      0.000000
  C       1.230341      0.000000     -0.000000
  N       2.447598     -0.000000      0.000000
3
Coordinates from ORCA-job .\OCN_geomOpt E -168.013776578689
  O       0.053238     -0.000000      0.000000
  C       1.223499      0.000000     -0.000000
  N       2.443263     -0.000000      0.000000
3
Coordinates from ORCA-job .\OCN_geomOpt E -168.013809689494
  O       0.051023      0.000000      0.000000
  C       1.223077     -0.000000     -0.000000
  N       2.445900      0.000000      0.000000
3
Coordinates from ORCA-job .\OCN_geomOpt E -168.013809324501
  O       0.050718     -0.000000      0.000000
  C       1.222592      0.000000     -0.000000
  N       2.446690     -0.000000      0.000000
3
Coordinates from ORCA-job .\OCN_geomOpt E -168.013809138506
  O       0.050719     -0.000000      0.000000
  C       1.222576      0.000000     -0.000000
  N       2.446705     -0.000000      0.000000
