! B3LYP def2-TZVP

%paras
    R = 45, 180, 300
end


* int 0 1
 O      0   0   0     0.000000000000     0.00000000     0.00000000
 O      1   0   0     1.250022552503     0.00000000     0.00000000
 O      2   1   0     1.250022552503     {R}            0.00000000
*