3
Coordinates from ORCA-job .\OCN-geomOpt E -167.811274214717
  O       0.000000      0.000000      0.000000
  C       1.200000      0.000000      0.000000
  N      -1.200000      0.000000      0.000000
3
Coordinates from ORCA-job .\OCN-geomOpt E -167.815990241234
  O       0.016515     -0.000000      0.000000
  C       1.206742      0.000000     -0.000000
  N      -1.223258      0.000000     -0.000000
3
Coordinates from ORCA-job .\OCN-geomOpt E -167.819120756213
  O       0.040906     -0.000000      0.000000
  C       1.209728      0.000000     -0.000000
  N      -1.250634      0.000000     -0.000000
3
Coordinates from ORCA-job .\OCN-geomOpt E -167.819704629091
  O       0.052923     -0.000000      0.000000
  C       1.214037      0.000000     -0.000000
  N      -1.266960      0.000000     -0.000000
3
Coordinates from ORCA-job .\OCN-geomOpt E -167.819852454067
  O       0.059360     -0.000000      0.000000
  C       1.219121      0.000000     -0.000000
  N      -1.278481      0.000000     -0.000000
3
Coordinates from ORCA-job .\OCN-geomOpt E -167.819869988040
  O       0.061938     -0.000000      0.000000
  C       1.221555      0.000000     -0.000000
  N      -1.283493      0.000000     -0.000000
3
Coordinates from ORCA-job .\OCN-geomOpt E -167.819869525024
  O       0.062508     -0.000000      0.000000
  C       1.222005      0.000000     -0.000000
  N      -1.284513      0.000000     -0.000000
3
Coordinates from ORCA-job .\OCN-geomOpt E -167.819870159601
  O       0.062532     -0.000000      0.000000
  C       1.222011      0.000000     -0.000000
  N      -1.284544      0.000000     -0.000000
