3
Coordinates from ORCA-job .\O3_geomOpt E -225.437645374718
  O       0.000000      0.000000      0.000000
  O       1.280000      0.000000      0.000000
  O       1.880924      1.130173      0.000000
3
Coordinates from ORCA-job .\O3_geomOpt E -225.441846559408
  O       0.032849      0.016723      0.000000
  O       1.277339      0.004431      0.000000
  O       1.850736      1.109019      0.000000
3
Coordinates from ORCA-job .\O3_geomOpt E -225.442114161161
  O       0.037219      0.012666      0.000000
  O       1.271436      0.014248      0.000000
  O       1.852269      1.103260      0.000000
3
Coordinates from ORCA-job .\O3_geomOpt E -225.442114753335
  O       0.036362      0.012933      0.000000
  O       1.272127      0.013100      0.000000
  O       1.852435      1.104141      0.000000
3
Coordinates from ORCA-job .\O3_geomOpt E -225.442114605395
  O       0.036426      0.012966      0.000000
  O       1.272122      0.013108      0.000000
  O       1.852375      1.104099      0.000000
