3
Coordinates from ORCA-job .\CNO_triangle E -167.805223297544
  O       0.000000      0.000000      0.000000
  N       1.200000      0.000000      0.000000
  C       0.600000      1.039230      0.000000
3
Coordinates from ORCA-job .\CNO_triangle E -167.875477908795
  O      -0.054325     -0.024353      0.000000
  N       1.251349     -0.019199      0.000000
  C       0.602975      1.082783      0.000000
3
Coordinates from ORCA-job .\CNO_triangle E -167.889102507619
  O      -0.083894     -0.038601      0.000000
  N       1.278040     -0.028516      0.000000
  C       0.605854      1.106347      0.000000
3
Coordinates from ORCA-job .\CNO_triangle E -167.891446262733
  O      -0.101085     -0.046824      0.000000
  N       1.292434     -0.031975      0.000000
  C       0.608651      1.118030      0.000000
3
Coordinates from ORCA-job .\CNO_triangle E -167.891595106240
  O      -0.106676     -0.049584      0.000000
  N       1.296203     -0.031654      0.000000
  C       0.610473      1.120469      0.000000
3
Coordinates from ORCA-job .\CNO_triangle E -167.891616756788
  O      -0.108547     -0.050726      0.000000
  N       1.296739     -0.030555      0.000000
  C       0.611808      1.120511      0.000000
3
Coordinates from ORCA-job .\CNO_triangle E -167.891638502525
  O      -0.110530     -0.052406      0.000000
  N       1.296406     -0.028370      0.000000
  C       0.614124      1.120007      0.000000
3
Coordinates from ORCA-job .\CNO_triangle E -167.891647478300
  O      -0.110914     -0.053384      0.000000
  N       1.295430     -0.027108      0.000000
  C       0.615484      1.119722      0.000000
3
Coordinates from ORCA-job .\CNO_triangle E -167.891651463673
  O      -0.110646     -0.054156      0.000000
  N       1.294297     -0.026483      0.000000
  C       0.616349      1.119870      0.000000
3
Coordinates from ORCA-job .\CNO_triangle E -167.891653762688
  O      -0.110216     -0.054854      0.000000
  N       1.293322     -0.026327      0.000000
  C       0.616895      1.120411      0.000000
3
Coordinates from ORCA-job .\CNO_triangle E -167.891653799374
  O      -0.109997     -0.055289      0.000000
  N       1.292893     -0.026449      0.000000
  C       0.617104      1.120968      0.000000
3
Coordinates from ORCA-job .\CNO_triangle E -167.891656726224
  O      -0.110015     -0.055384      0.000000
  N       1.292911     -0.026552      0.000000
  C       0.617103      1.121166      0.000000
