! wB97X-V def2-TZVP 

%paras
    R = -0.9988, -3.5, 25
	P = 1.0114, 3.5, 25
end

* xyz 0 2
 O      {R}       0.00000000     0.00000000
 N      0.000     0.00000000     0.00000000
 C      {P}       0.00000000     0.00000000
*
