3
Coordinates from ORCA-job .\CNO_geomOpt E -167.915327392242
  C       0.000000      0.000000      0.000000
  N       1.200000      0.000000      0.000000
  O       2.400000      0.000000      0.000000
3
Coordinates from ORCA-job .\CNO_geomOpt E -167.915531637395
  C      -0.003349      0.000000     -0.000000
  N       1.197030     -0.000000      0.000000
  O       2.406319      0.000000     -0.000000
3
Coordinates from ORCA-job .\CNO_geomOpt E -167.915561685647
  C      -0.004138      0.000000      0.000000
  N       1.195081     -0.000000     -0.000000
  O       2.409057      0.000000      0.000000
3
Coordinates from ORCA-job .\CNO_geomOpt E -167.915561174854
  C      -0.004018      0.000000      0.000000
  N       1.194838     -0.000000     -0.000000
  O       2.409180      0.000000      0.000000
3
Coordinates from ORCA-job .\CNO_geomOpt E -167.915561409783
  C      -0.003975      0.000000      0.000000
  N       1.194815     -0.000000     -0.000000
  O       2.409160      0.000000      0.000000
