! B3LYP def2-TZVP

%paras
    # Var 1: Bond H1-H2 from 0.8 to 1.2 in 20 steps
    R = 0.9, 3.9, 30

    # Var 2: Bond H2-H3 from 0.8 to 1.2 in 20 steps
    Q = 0.9, 3.9, 30
end


* int 0 1
 O      0   0   0     0.000000000000     0.00000000     0.00000000
 O      1   0   0     {R}                0.00000000     0.00000000
 O      2   1   0     {Q}                118.35765754   0.00000000
*