! PBE0 D3BJ def2-TZVP TightSCF RIJCOSX

%paras
    R = 0.9, 3.5, 10
    Q = 0.9, 6, 50
end


* int 0 1
 O      0   0   0     0.000000000000     0.00000000     0.00000000
 O      1   0   0     {R}                0.00000000     0.00000000
 O      2   1   0     {Q}                118.35765754   0.00000000
*