! PBE0 D3BJ def2-TZVP TightSCF Opt Freq RIJCOSX

* int 0 1
  O  0 0 0 0.000000  0.000000  0.000000
  O  1 0 0 1.280000  0.000000  0.000000
  O  2 1 0 1.280000  118.0000  0.000000
*